python/teste/teste29
4 3
1 6 2 4 0 2
1 9 2 9 0 9
1 3 2 4 0 3
1 5 2 2 0 8
