python/teste/teste29.lp
\ LP format - for model browsing. Use MPS format to capture full model detail.
Minimize
  - 2 x0 + 2 x1 - 5 x3 - 5 x4
Subject To
 constr(0): - x0 + 3 x2 - 3 x3 >= -0
 constr(1): 4 x1 + 2 x2 + 3 x3 + 3 x4 = 17
 constr(2): x0 - 3 x1 + 4 x2 + 3 x3 + 5 x4 = 13
Bounds
 x0 <= 2
 x1 <= 4
 x2 <= 5
 x3 <= 4
 x4 <= 4
Generals
 x0 x1 x2 x3 x4
End
